; benchmark generated from python API
(set-info :status unknown)
(declare-fun cell_1_1 () Int)
(declare-fun cell_1_2 () Int)
(declare-fun cell_1_3 () Int)
(declare-fun cell_1_4 () Int)
(declare-fun cell_2_1 () Int)
(declare-fun cell_3_1 () Int)
(declare-fun cell_4_1 () Int)
(declare-fun cell_5_1 () Int)
(declare-fun cell_6_1 () Int)
(declare-fun cell_7_1 () Int)
(declare-fun cell_8_1 () Int)
(declare-fun cell_9_1 () Int)
(declare-fun cell_2_2 () Int)
(declare-fun cell_3_2 () Int)
(declare-fun cell_4_2 () Int)
(declare-fun cell_5_2 () Int)
(declare-fun cell_6_2 () Int)
(declare-fun cell_7_2 () Int)
(declare-fun cell_8_2 () Int)
(declare-fun cell_9_2 () Int)
(declare-fun cell_2_3 () Int)
(declare-fun cell_3_3 () Int)
(declare-fun cell_4_3 () Int)
(declare-fun cell_5_3 () Int)
(declare-fun cell_6_3 () Int)
(declare-fun cell_7_3 () Int)
(declare-fun cell_8_3 () Int)
(declare-fun cell_9_3 () Int)
(declare-fun cell_2_4 () Int)
(declare-fun cell_3_4 () Int)
(declare-fun cell_4_4 () Int)
(declare-fun cell_5_4 () Int)
(declare-fun cell_6_4 () Int)
(declare-fun cell_7_4 () Int)
(declare-fun cell_8_4 () Int)
(declare-fun cell_9_4 () Int)
(declare-fun cell_1_5 () Int)
(declare-fun cell_2_5 () Int)
(declare-fun cell_3_5 () Int)
(declare-fun cell_4_5 () Int)
(declare-fun cell_5_5 () Int)
(declare-fun cell_6_5 () Int)
(declare-fun cell_7_5 () Int)
(declare-fun cell_8_5 () Int)
(declare-fun cell_9_5 () Int)
(declare-fun cell_1_6 () Int)
(declare-fun cell_2_6 () Int)
(declare-fun cell_3_6 () Int)
(declare-fun cell_4_6 () Int)
(declare-fun cell_5_6 () Int)
(declare-fun cell_6_6 () Int)
(declare-fun cell_7_6 () Int)
(declare-fun cell_8_6 () Int)
(declare-fun cell_9_6 () Int)
(declare-fun cell_1_7 () Int)
(declare-fun cell_2_7 () Int)
(declare-fun cell_3_7 () Int)
(declare-fun cell_4_7 () Int)
(declare-fun cell_5_7 () Int)
(declare-fun cell_6_7 () Int)
(declare-fun cell_7_7 () Int)
(declare-fun cell_8_7 () Int)
(declare-fun cell_9_7 () Int)
(declare-fun cell_1_8 () Int)
(declare-fun cell_2_8 () Int)
(declare-fun cell_3_8 () Int)
(declare-fun cell_4_8 () Int)
(declare-fun cell_5_8 () Int)
(declare-fun cell_6_8 () Int)
(declare-fun cell_7_8 () Int)
(declare-fun cell_8_8 () Int)
(declare-fun cell_9_8 () Int)
(declare-fun cell_1_9 () Int)
(declare-fun cell_2_9 () Int)
(declare-fun cell_3_9 () Int)
(declare-fun cell_4_9 () Int)
(declare-fun cell_5_9 () Int)
(declare-fun cell_6_9 () Int)
(declare-fun cell_7_9 () Int)
(declare-fun cell_8_9 () Int)
(declare-fun cell_9_9 () Int)
(assert
 (= cell_1_1 3))
(assert
 (= cell_1_2 2))
(assert
 (= cell_1_3 4))
(assert
 (= cell_1_4 8))
(assert
 (let (($x898 (= cell_1_1 3)))
 (or (= cell_1_1 1) (= cell_1_1 2) $x898 (= cell_1_1 4) (= cell_1_1 5) (= cell_1_1 6) (= cell_1_1 7) (= cell_1_1 8) (= cell_1_1 9))))
(assert
 (let (($x6882 (= cell_2_1 4)))
 (let (($x2295 (= cell_2_1 3)))
 (let (($x5087 (= cell_2_1 2)))
 (or (= cell_2_1 1) $x5087 $x2295 $x6882 (= cell_2_1 5) (= cell_2_1 6) (= cell_2_1 7) (= cell_2_1 8) (= cell_2_1 9))))))
(assert
 (let (($x4977 (= cell_3_1 4)))
 (let (($x5235 (= cell_3_1 3)))
 (let (($x8975 (= cell_3_1 2)))
 (or (= cell_3_1 1) $x8975 $x5235 $x4977 (= cell_3_1 5) (= cell_3_1 6) (= cell_3_1 7) (= cell_3_1 8) (= cell_3_1 9))))))
(assert
 (let (($x2822 (= cell_4_1 3)))
 (or (= cell_4_1 1) (= cell_4_1 2) $x2822 (= cell_4_1 4) (= cell_4_1 5) (= cell_4_1 6) (= cell_4_1 7) (= cell_4_1 8) (= cell_4_1 9))))
(assert
 (let (($x668 (= cell_5_1 3)))
 (or (= cell_5_1 1) (= cell_5_1 2) $x668 (= cell_5_1 4) (= cell_5_1 5) (= cell_5_1 6) (= cell_5_1 7) (= cell_5_1 8) (= cell_5_1 9))))
(assert
 (let (($x6560 (= cell_6_1 3)))
 (or (= cell_6_1 1) (= cell_6_1 2) $x6560 (= cell_6_1 4) (= cell_6_1 5) (= cell_6_1 6) (= cell_6_1 7) (= cell_6_1 8) (= cell_6_1 9))))
(assert
 (let (($x475 (= cell_7_1 3)))
 (or (= cell_7_1 1) (= cell_7_1 2) $x475 (= cell_7_1 4) (= cell_7_1 5) (= cell_7_1 6) (= cell_7_1 7) (= cell_7_1 8) (= cell_7_1 9))))
(assert
 (let (($x8777 (= cell_8_1 3)))
 (or (= cell_8_1 1) (= cell_8_1 2) $x8777 (= cell_8_1 4) (= cell_8_1 5) (= cell_8_1 6) (= cell_8_1 7) (= cell_8_1 8) (= cell_8_1 9))))
(assert
 (let (($x1103 (= cell_9_1 3)))
 (or (= cell_9_1 1) (= cell_9_1 2) $x1103 (= cell_9_1 4) (= cell_9_1 5) (= cell_9_1 6) (= cell_9_1 7) (= cell_9_1 8) (= cell_9_1 9))))
(assert
 (let (($x873 (= cell_1_2 2)))
 (or (= cell_1_2 1) $x873 (= cell_1_2 3) (= cell_1_2 4) (= cell_1_2 5) (= cell_1_2 6) (= cell_1_2 7) (= cell_1_2 8) (= cell_1_2 9))))
(assert
 (let (($x8594 (= cell_2_2 4)))
 (let (($x3721 (= cell_2_2 3)))
 (let (($x9539 (= cell_2_2 2)))
 (or (= cell_2_2 1) $x9539 $x3721 $x8594 (= cell_2_2 5) (= cell_2_2 6) (= cell_2_2 7) (= cell_2_2 8) (= cell_2_2 9))))))
(assert
 (let (($x10040 (= cell_3_2 4)))
 (let (($x1297 (= cell_3_2 3)))
 (let (($x1707 (= cell_3_2 2)))
 (or (= cell_3_2 1) $x1707 $x1297 $x10040 (= cell_3_2 5) (= cell_3_2 6) (= cell_3_2 7) (= cell_3_2 8) (= cell_3_2 9))))))
(assert
 (let (($x9094 (= cell_4_2 2)))
 (or (= cell_4_2 1) $x9094 (= cell_4_2 3) (= cell_4_2 4) (= cell_4_2 5) (= cell_4_2 6) (= cell_4_2 7) (= cell_4_2 8) (= cell_4_2 9))))
(assert
 (let (($x2302 (= cell_5_2 2)))
 (or (= cell_5_2 1) $x2302 (= cell_5_2 3) (= cell_5_2 4) (= cell_5_2 5) (= cell_5_2 6) (= cell_5_2 7) (= cell_5_2 8) (= cell_5_2 9))))
(assert
 (let (($x3545 (= cell_6_2 2)))
 (or (= cell_6_2 1) $x3545 (= cell_6_2 3) (= cell_6_2 4) (= cell_6_2 5) (= cell_6_2 6) (= cell_6_2 7) (= cell_6_2 8) (= cell_6_2 9))))
(assert
 (let (($x4562 (= cell_7_2 2)))
 (or (= cell_7_2 1) $x4562 (= cell_7_2 3) (= cell_7_2 4) (= cell_7_2 5) (= cell_7_2 6) (= cell_7_2 7) (= cell_7_2 8) (= cell_7_2 9))))
(assert
 (let (($x6674 (= cell_8_2 2)))
 (or (= cell_8_2 1) $x6674 (= cell_8_2 3) (= cell_8_2 4) (= cell_8_2 5) (= cell_8_2 6) (= cell_8_2 7) (= cell_8_2 8) (= cell_8_2 9))))
(assert
 (let (($x7387 (= cell_9_2 2)))
 (or (= cell_9_2 1) $x7387 (= cell_9_2 3) (= cell_9_2 4) (= cell_9_2 5) (= cell_9_2 6) (= cell_9_2 7) (= cell_9_2 8) (= cell_9_2 9))))
(assert
 (let (($x2825 (= cell_1_3 4)))
 (or (= cell_1_3 1) (= cell_1_3 2) (= cell_1_3 3) $x2825 (= cell_1_3 5) (= cell_1_3 6) (= cell_1_3 7) (= cell_1_3 8) (= cell_1_3 9))))
(assert
 (let (($x3016 (= cell_2_3 4)))
 (let (($x3511 (= cell_2_3 3)))
 (let (($x579 (= cell_2_3 2)))
 (or (= cell_2_3 1) $x579 $x3511 $x3016 (= cell_2_3 5) (= cell_2_3 6) (= cell_2_3 7) (= cell_2_3 8) (= cell_2_3 9))))))
(assert
 (let (($x8014 (= cell_3_3 4)))
 (let (($x7899 (= cell_3_3 3)))
 (let (($x8013 (= cell_3_3 2)))
 (or (= cell_3_3 1) $x8013 $x7899 $x8014 (= cell_3_3 5) (= cell_3_3 6) (= cell_3_3 7) (= cell_3_3 8) (= cell_3_3 9))))))
(assert
 (let (($x2867 (= cell_4_3 4)))
 (or (= cell_4_3 1) (= cell_4_3 2) (= cell_4_3 3) $x2867 (= cell_4_3 5) (= cell_4_3 6) (= cell_4_3 7) (= cell_4_3 8) (= cell_4_3 9))))
(assert
 (let (($x1407 (= cell_5_3 4)))
 (or (= cell_5_3 1) (= cell_5_3 2) (= cell_5_3 3) $x1407 (= cell_5_3 5) (= cell_5_3 6) (= cell_5_3 7) (= cell_5_3 8) (= cell_5_3 9))))
(assert
 (let (($x687 (= cell_6_3 4)))
 (or (= cell_6_3 1) (= cell_6_3 2) (= cell_6_3 3) $x687 (= cell_6_3 5) (= cell_6_3 6) (= cell_6_3 7) (= cell_6_3 8) (= cell_6_3 9))))
(assert
 (let (($x3388 (= cell_7_3 4)))
 (or (= cell_7_3 1) (= cell_7_3 2) (= cell_7_3 3) $x3388 (= cell_7_3 5) (= cell_7_3 6) (= cell_7_3 7) (= cell_7_3 8) (= cell_7_3 9))))
(assert
 (let (($x2264 (= cell_8_3 4)))
 (or (= cell_8_3 1) (= cell_8_3 2) (= cell_8_3 3) $x2264 (= cell_8_3 5) (= cell_8_3 6) (= cell_8_3 7) (= cell_8_3 8) (= cell_8_3 9))))
(assert
 (let (($x7808 (= cell_9_3 4)))
 (or (= cell_9_3 1) (= cell_9_3 2) (= cell_9_3 3) $x7808 (= cell_9_3 5) (= cell_9_3 6) (= cell_9_3 7) (= cell_9_3 8) (= cell_9_3 9))))
(assert
 (let (($x892 (= cell_1_4 8)))
 (or (= cell_1_4 1) (= cell_1_4 2) (= cell_1_4 3) (= cell_1_4 4) (= cell_1_4 5) (= cell_1_4 6) (= cell_1_4 7) $x892 (= cell_1_4 9))))
(assert
 (let (($x9785 (= cell_2_4 8)))
 (or (= cell_2_4 1) (= cell_2_4 2) (= cell_2_4 3) (= cell_2_4 4) (= cell_2_4 5) (= cell_2_4 6) (= cell_2_4 7) $x9785 (= cell_2_4 9))))
(assert
 (let (($x6817 (= cell_3_4 8)))
 (let (($x2729 (= cell_3_4 2)))
 (or (= cell_3_4 1) $x2729 (= cell_3_4 3) (= cell_3_4 4) (= cell_3_4 5) (= cell_3_4 6) (= cell_3_4 7) $x6817 (= cell_3_4 9)))))
(assert
 (let (($x6048 (= cell_4_4 8)))
 (or (= cell_4_4 1) (= cell_4_4 2) (= cell_4_4 3) (= cell_4_4 4) (= cell_4_4 5) (= cell_4_4 6) (= cell_4_4 7) $x6048 (= cell_4_4 9))))
(assert
 (let (($x6972 (= cell_5_4 8)))
 (or (= cell_5_4 1) (= cell_5_4 2) (= cell_5_4 3) (= cell_5_4 4) (= cell_5_4 5) (= cell_5_4 6) (= cell_5_4 7) $x6972 (= cell_5_4 9))))
(assert
 (let (($x7427 (= cell_6_4 8)))
 (or (= cell_6_4 1) (= cell_6_4 2) (= cell_6_4 3) (= cell_6_4 4) (= cell_6_4 5) (= cell_6_4 6) (= cell_6_4 7) $x7427 (= cell_6_4 9))))
(assert
 (let (($x2421 (= cell_7_4 8)))
 (or (= cell_7_4 1) (= cell_7_4 2) (= cell_7_4 3) (= cell_7_4 4) (= cell_7_4 5) (= cell_7_4 6) (= cell_7_4 7) $x2421 (= cell_7_4 9))))
(assert
 (let (($x8917 (= cell_8_4 8)))
 (or (= cell_8_4 1) (= cell_8_4 2) (= cell_8_4 3) (= cell_8_4 4) (= cell_8_4 5) (= cell_8_4 6) (= cell_8_4 7) $x8917 (= cell_8_4 9))))
(assert
 (let (($x5099 (= cell_9_4 8)))
 (or (= cell_9_4 1) (= cell_9_4 2) (= cell_9_4 3) (= cell_9_4 4) (= cell_9_4 5) (= cell_9_4 6) (= cell_9_4 7) $x5099 (= cell_9_4 9))))
(assert
 (let (($x2257 (= cell_1_5 8)))
 (let (($x9433 (= cell_1_5 5)))
 (let (($x9738 (= cell_1_5 4)))
 (let (($x2885 (= cell_1_5 3)))
 (let (($x6259 (= cell_1_5 2)))
 (or (= cell_1_5 1) $x6259 $x2885 $x9738 $x9433 (= cell_1_5 6) (= cell_1_5 7) $x2257 (= cell_1_5 9))))))))
(assert
 (let (($x5456 (= cell_2_5 8)))
 (or (= cell_2_5 1) (= cell_2_5 2) (= cell_2_5 3) (= cell_2_5 4) (= cell_2_5 5) (= cell_2_5 6) (= cell_2_5 7) $x5456 (= cell_2_5 9))))
(assert
 (let (($x2483 (= cell_3_5 8)))
 (or (= cell_3_5 1) (= cell_3_5 2) (= cell_3_5 3) (= cell_3_5 4) (= cell_3_5 5) (= cell_3_5 6) (= cell_3_5 7) $x2483 (= cell_3_5 9))))
(assert
 (let (($x4842 (= cell_4_5 2)))
 (or (= cell_4_5 1) $x4842 (= cell_4_5 3) (= cell_4_5 4) (= cell_4_5 5) (= cell_4_5 6) (= cell_4_5 7) (= cell_4_5 8) (= cell_4_5 9))))
(assert
 (or (= cell_5_5 1) (= cell_5_5 2) (= cell_5_5 3) (= cell_5_5 4) (= cell_5_5 5) (= cell_5_5 6) (= cell_5_5 7) (= cell_5_5 8) (= cell_5_5 9)))
(assert
 (or (= cell_6_5 1) (= cell_6_5 2) (= cell_6_5 3) (= cell_6_5 4) (= cell_6_5 5) (= cell_6_5 6) (= cell_6_5 7) (= cell_6_5 8) (= cell_6_5 9)))
(assert
 (or (= cell_7_5 1) (= cell_7_5 2) (= cell_7_5 3) (= cell_7_5 4) (= cell_7_5 5) (= cell_7_5 6) (= cell_7_5 7) (= cell_7_5 8) (= cell_7_5 9)))
(assert
 (or (= cell_8_5 1) (= cell_8_5 2) (= cell_8_5 3) (= cell_8_5 4) (= cell_8_5 5) (= cell_8_5 6) (= cell_8_5 7) (= cell_8_5 8) (= cell_8_5 9)))
(assert
 (or (= cell_9_5 1) (= cell_9_5 2) (= cell_9_5 3) (= cell_9_5 4) (= cell_9_5 5) (= cell_9_5 6) (= cell_9_5 7) (= cell_9_5 8) (= cell_9_5 9)))
(assert
 (let (($x8712 (= cell_1_6 8)))
 (let (($x9106 (= cell_1_6 4)))
 (let (($x501 (= cell_1_6 3)))
 (let (($x5653 (= cell_1_6 2)))
 (or (= cell_1_6 1) $x5653 $x501 $x9106 (= cell_1_6 5) (= cell_1_6 6) (= cell_1_6 7) $x8712 (= cell_1_6 9)))))))
(assert
 (let (($x9302 (= cell_2_6 8)))
 (or (= cell_2_6 1) (= cell_2_6 2) (= cell_2_6 3) (= cell_2_6 4) (= cell_2_6 5) (= cell_2_6 6) (= cell_2_6 7) $x9302 (= cell_2_6 9))))
(assert
 (let (($x3054 (= cell_3_6 8)))
 (or (= cell_3_6 1) (= cell_3_6 2) (= cell_3_6 3) (= cell_3_6 4) (= cell_3_6 5) (= cell_3_6 6) (= cell_3_6 7) $x3054 (= cell_3_6 9))))
(assert
 (or (= cell_4_6 1) (= cell_4_6 2) (= cell_4_6 3) (= cell_4_6 4) (= cell_4_6 5) (= cell_4_6 6) (= cell_4_6 7) (= cell_4_6 8) (= cell_4_6 9)))
(assert
 (let (($x8710 (= cell_5_6 2)))
 (or (= cell_5_6 1) $x8710 (= cell_5_6 3) (= cell_5_6 4) (= cell_5_6 5) (= cell_5_6 6) (= cell_5_6 7) (= cell_5_6 8) (= cell_5_6 9))))
(assert
 (or (= cell_6_6 1) (= cell_6_6 2) (= cell_6_6 3) (= cell_6_6 4) (= cell_6_6 5) (= cell_6_6 6) (= cell_6_6 7) (= cell_6_6 8) (= cell_6_6 9)))
(assert
 (or (= cell_7_6 1) (= cell_7_6 2) (= cell_7_6 3) (= cell_7_6 4) (= cell_7_6 5) (= cell_7_6 6) (= cell_7_6 7) (= cell_7_6 8) (= cell_7_6 9)))
(assert
 (or (= cell_8_6 1) (= cell_8_6 2) (= cell_8_6 3) (= cell_8_6 4) (= cell_8_6 5) (= cell_8_6 6) (= cell_8_6 7) (= cell_8_6 8) (= cell_8_6 9)))
(assert
 (or (= cell_9_6 1) (= cell_9_6 2) (= cell_9_6 3) (= cell_9_6 4) (= cell_9_6 5) (= cell_9_6 6) (= cell_9_6 7) (= cell_9_6 8) (= cell_9_6 9)))
(assert
 (let (($x9942 (= cell_1_7 8)))
 (let (($x719 (= cell_1_7 4)))
 (let (($x2216 (= cell_1_7 3)))
 (let (($x2073 (= cell_1_7 2)))
 (or (= cell_1_7 1) $x2073 $x2216 $x719 (= cell_1_7 5) (= cell_1_7 6) (= cell_1_7 7) $x9942 (= cell_1_7 9)))))))
(assert
 (or (= cell_2_7 1) (= cell_2_7 2) (= cell_2_7 3) (= cell_2_7 4) (= cell_2_7 5) (= cell_2_7 6) (= cell_2_7 7) (= cell_2_7 8) (= cell_2_7 9)))
(assert
 (or (= cell_3_7 1) (= cell_3_7 2) (= cell_3_7 3) (= cell_3_7 4) (= cell_3_7 5) (= cell_3_7 6) (= cell_3_7 7) (= cell_3_7 8) (= cell_3_7 9)))
(assert
 (or (= cell_4_7 1) (= cell_4_7 2) (= cell_4_7 3) (= cell_4_7 4) (= cell_4_7 5) (= cell_4_7 6) (= cell_4_7 7) (= cell_4_7 8) (= cell_4_7 9)))
(assert
 (or (= cell_5_7 1) (= cell_5_7 2) (= cell_5_7 3) (= cell_5_7 4) (= cell_5_7 5) (= cell_5_7 6) (= cell_5_7 7) (= cell_5_7 8) (= cell_5_7 9)))
(assert
 (let (($x5143 (= cell_6_7 2)))
 (or (= cell_6_7 1) $x5143 (= cell_6_7 3) (= cell_6_7 4) (= cell_6_7 5) (= cell_6_7 6) (= cell_6_7 7) (= cell_6_7 8) (= cell_6_7 9))))
(assert
 (or (= cell_7_7 1) (= cell_7_7 2) (= cell_7_7 3) (= cell_7_7 4) (= cell_7_7 5) (= cell_7_7 6) (= cell_7_7 7) (= cell_7_7 8) (= cell_7_7 9)))
(assert
 (or (= cell_8_7 1) (= cell_8_7 2) (= cell_8_7 3) (= cell_8_7 4) (= cell_8_7 5) (= cell_8_7 6) (= cell_8_7 7) (= cell_8_7 8) (= cell_8_7 9)))
(assert
 (or (= cell_9_7 1) (= cell_9_7 2) (= cell_9_7 3) (= cell_9_7 4) (= cell_9_7 5) (= cell_9_7 6) (= cell_9_7 7) (= cell_9_7 8) (= cell_9_7 9)))
(assert
 (let (($x4317 (= cell_1_8 8)))
 (let (($x9924 (= cell_1_8 4)))
 (let (($x5401 (= cell_1_8 3)))
 (let (($x3675 (= cell_1_8 2)))
 (or (= cell_1_8 1) $x3675 $x5401 $x9924 (= cell_1_8 5) (= cell_1_8 6) (= cell_1_8 7) $x4317 (= cell_1_8 9)))))))
(assert
 (or (= cell_2_8 1) (= cell_2_8 2) (= cell_2_8 3) (= cell_2_8 4) (= cell_2_8 5) (= cell_2_8 6) (= cell_2_8 7) (= cell_2_8 8) (= cell_2_8 9)))
(assert
 (or (= cell_3_8 1) (= cell_3_8 2) (= cell_3_8 3) (= cell_3_8 4) (= cell_3_8 5) (= cell_3_8 6) (= cell_3_8 7) (= cell_3_8 8) (= cell_3_8 9)))
(assert
 (or (= cell_4_8 1) (= cell_4_8 2) (= cell_4_8 3) (= cell_4_8 4) (= cell_4_8 5) (= cell_4_8 6) (= cell_4_8 7) (= cell_4_8 8) (= cell_4_8 9)))
(assert
 (or (= cell_5_8 1) (= cell_5_8 2) (= cell_5_8 3) (= cell_5_8 4) (= cell_5_8 5) (= cell_5_8 6) (= cell_5_8 7) (= cell_5_8 8) (= cell_5_8 9)))
(assert
 (or (= cell_6_8 1) (= cell_6_8 2) (= cell_6_8 3) (= cell_6_8 4) (= cell_6_8 5) (= cell_6_8 6) (= cell_6_8 7) (= cell_6_8 8) (= cell_6_8 9)))
(assert
 (let (($x5777 (= cell_7_8 2)))
 (or (= cell_7_8 1) $x5777 (= cell_7_8 3) (= cell_7_8 4) (= cell_7_8 5) (= cell_7_8 6) (= cell_7_8 7) (= cell_7_8 8) (= cell_7_8 9))))
(assert
 (or (= cell_8_8 1) (= cell_8_8 2) (= cell_8_8 3) (= cell_8_8 4) (= cell_8_8 5) (= cell_8_8 6) (= cell_8_8 7) (= cell_8_8 8) (= cell_8_8 9)))
(assert
 (or (= cell_9_8 1) (= cell_9_8 2) (= cell_9_8 3) (= cell_9_8 4) (= cell_9_8 5) (= cell_9_8 6) (= cell_9_8 7) (= cell_9_8 8) (= cell_9_8 9)))
(assert
 (let (($x6406 (= cell_1_9 8)))
 (let (($x2672 (= cell_1_9 4)))
 (let (($x3654 (= cell_1_9 3)))
 (let (($x1142 (= cell_1_9 2)))
 (or (= cell_1_9 1) $x1142 $x3654 $x2672 (= cell_1_9 5) (= cell_1_9 6) (= cell_1_9 7) $x6406 (= cell_1_9 9)))))))
(assert
 (or (= cell_2_9 1) (= cell_2_9 2) (= cell_2_9 3) (= cell_2_9 4) (= cell_2_9 5) (= cell_2_9 6) (= cell_2_9 7) (= cell_2_9 8) (= cell_2_9 9)))
(assert
 (or (= cell_3_9 1) (= cell_3_9 2) (= cell_3_9 3) (= cell_3_9 4) (= cell_3_9 5) (= cell_3_9 6) (= cell_3_9 7) (= cell_3_9 8) (= cell_3_9 9)))
(assert
 (or (= cell_4_9 1) (= cell_4_9 2) (= cell_4_9 3) (= cell_4_9 4) (= cell_4_9 5) (= cell_4_9 6) (= cell_4_9 7) (= cell_4_9 8) (= cell_4_9 9)))
(assert
 (or (= cell_5_9 1) (= cell_5_9 2) (= cell_5_9 3) (= cell_5_9 4) (= cell_5_9 5) (= cell_5_9 6) (= cell_5_9 7) (= cell_5_9 8) (= cell_5_9 9)))
(assert
 (or (= cell_6_9 1) (= cell_6_9 2) (= cell_6_9 3) (= cell_6_9 4) (= cell_6_9 5) (= cell_6_9 6) (= cell_6_9 7) (= cell_6_9 8) (= cell_6_9 9)))
(assert
 (or (= cell_7_9 1) (= cell_7_9 2) (= cell_7_9 3) (= cell_7_9 4) (= cell_7_9 5) (= cell_7_9 6) (= cell_7_9 7) (= cell_7_9 8) (= cell_7_9 9)))
(assert
 (let (($x115 (= cell_8_9 2)))
 (or (= cell_8_9 1) $x115 (= cell_8_9 3) (= cell_8_9 4) (= cell_8_9 5) (= cell_8_9 6) (= cell_8_9 7) (= cell_8_9 8) (= cell_8_9 9))))
(assert
 (or (= cell_9_9 1) (= cell_9_9 2) (= cell_9_9 3) (= cell_9_9 4) (= cell_9_9 5) (= cell_9_9 6) (= cell_9_9 7) (= cell_9_9 8) (= cell_9_9 9)))
(assert
 (and (distinct cell_1_1 cell_1_2 cell_1_3 cell_1_4 cell_1_5 cell_1_6 cell_1_7 cell_1_8 cell_1_9) true))
(assert
 (and (distinct cell_2_1 cell_2_2 cell_2_3 cell_2_4 cell_2_5 cell_2_6 cell_2_7 cell_2_8 cell_2_9) true))
(assert
 (and (distinct cell_3_1 cell_3_2 cell_3_3 cell_3_4 cell_3_5 cell_3_6 cell_3_7 cell_3_8 cell_3_9) true))
(assert
 (and (distinct cell_4_1 cell_4_2 cell_4_3 cell_4_4 cell_4_5 cell_4_6 cell_4_7 cell_4_8 cell_4_9) true))
(assert
 (and (distinct cell_5_1 cell_5_2 cell_5_3 cell_5_4 cell_5_5 cell_5_6 cell_5_7 cell_5_8 cell_5_9) true))
(assert
 (and (distinct cell_6_1 cell_6_2 cell_6_3 cell_6_4 cell_6_5 cell_6_6 cell_6_7 cell_6_8 cell_6_9) true))
(assert
 (and (distinct cell_7_1 cell_7_2 cell_7_3 cell_7_4 cell_7_5 cell_7_6 cell_7_7 cell_7_8 cell_7_9) true))
(assert
 (and (distinct cell_8_1 cell_8_2 cell_8_3 cell_8_4 cell_8_5 cell_8_6 cell_8_7 cell_8_8 cell_8_9) true))
(assert
 (and (distinct cell_9_1 cell_9_2 cell_9_3 cell_9_4 cell_9_5 cell_9_6 cell_9_7 cell_9_8 cell_9_9) true))
(assert
 (and (distinct cell_1_1 cell_2_1 cell_3_1 cell_4_1 cell_5_1 cell_6_1 cell_7_1 cell_8_1 cell_9_1) true))
(assert
 (and (distinct cell_1_2 cell_2_2 cell_3_2 cell_4_2 cell_5_2 cell_6_2 cell_7_2 cell_8_2 cell_9_2) true))
(assert
 (and (distinct cell_1_3 cell_2_3 cell_3_3 cell_4_3 cell_5_3 cell_6_3 cell_7_3 cell_8_3 cell_9_3) true))
(assert
 (and (distinct cell_1_4 cell_2_4 cell_3_4 cell_4_4 cell_5_4 cell_6_4 cell_7_4 cell_8_4 cell_9_4) true))
(assert
 (and (distinct cell_1_5 cell_2_5 cell_3_5 cell_4_5 cell_5_5 cell_6_5 cell_7_5 cell_8_5 cell_9_5) true))
(assert
 (and (distinct cell_1_6 cell_2_6 cell_3_6 cell_4_6 cell_5_6 cell_6_6 cell_7_6 cell_8_6 cell_9_6) true))
(assert
 (and (distinct cell_1_7 cell_2_7 cell_3_7 cell_4_7 cell_5_7 cell_6_7 cell_7_7 cell_8_7 cell_9_7) true))
(assert
 (and (distinct cell_1_8 cell_2_8 cell_3_8 cell_4_8 cell_5_8 cell_6_8 cell_7_8 cell_8_8 cell_9_8) true))
(assert
 (and (distinct cell_1_9 cell_2_9 cell_3_9 cell_4_9 cell_5_9 cell_6_9 cell_7_9 cell_8_9 cell_9_9) true))
(assert
 (and (distinct cell_1_1 cell_1_2 cell_1_3 cell_2_1 cell_2_2 cell_2_3 cell_3_1 cell_3_2 cell_3_3) true))
(assert
 (and (distinct cell_1_4 cell_1_5 cell_1_6 cell_2_4 cell_2_5 cell_2_6 cell_3_4 cell_3_5 cell_3_6) true))
(assert
 (and (distinct cell_1_7 cell_1_8 cell_1_9 cell_2_7 cell_2_8 cell_2_9 cell_3_7 cell_3_8 cell_3_9) true))
(assert
 (and (distinct cell_4_1 cell_4_2 cell_4_3 cell_5_1 cell_5_2 cell_5_3 cell_6_1 cell_6_2 cell_6_3) true))
(assert
 (and (distinct cell_4_4 cell_4_5 cell_4_6 cell_5_4 cell_5_5 cell_5_6 cell_6_4 cell_6_5 cell_6_6) true))
(assert
 (and (distinct cell_4_7 cell_4_8 cell_4_9 cell_5_7 cell_5_8 cell_5_9 cell_6_7 cell_6_8 cell_6_9) true))
(assert
 (and (distinct cell_7_1 cell_7_2 cell_7_3 cell_8_1 cell_8_2 cell_8_3 cell_9_1 cell_9_2 cell_9_3) true))
(assert
 (and (distinct cell_7_4 cell_7_5 cell_7_6 cell_8_4 cell_8_5 cell_8_6 cell_9_4 cell_9_5 cell_9_6) true))
(assert
 (and (distinct cell_7_7 cell_7_8 cell_7_9 cell_8_7 cell_8_8 cell_8_9 cell_9_7 cell_9_8 cell_9_9) true))
(assert
 (let (($x8705 (and (distinct cell_5_9 cell_6_8 cell_7_7 cell_8_6) true)))
 (let (($x7317 (and (distinct cell_2_9 cell_3_8 cell_4_7 cell_5_6 cell_6_5 cell_7_4 cell_8_3 cell_9_2) true)))
 (let (($x9115 (and (distinct cell_1_8 cell_2_7 cell_3_6 cell_4_5 cell_5_4 cell_6_3 cell_7_2 cell_8_1) true)))
 (let (($x5241 (and (distinct cell_1_5 cell_2_4 cell_3_3 cell_4_2) true)))
 (let (($x7193 (and (distinct cell_5_1 cell_6_2 cell_7_3 cell_8_4) true)))
 (let (($x1653 (and (distinct cell_2_1 cell_3_2 cell_4_3 cell_5_4 cell_6_5 cell_7_6 cell_8_7 cell_9_8) true)))
 (let (($x1133 (and (distinct cell_1_2 cell_2_3 cell_3_4 cell_4_5 cell_5_6 cell_6_7 cell_7_8 cell_8_9) true)))
 (let (($x5076 (and (distinct cell_1_5 cell_2_6 cell_3_7 cell_4_8) true)))
 (and $x5076 $x1133 $x1653 $x7193 $x5241 $x9115 $x7317 $x8705))))))))))
(assert
 (= cell_1_5 5))
(check-sat)
